p cnf 847 2344
1 0
2 0
3 0
4 0
5 0
6 0
7 0
8 0
9 0
10 0
-11 0
-12 0
-13 0
-14 0
-15 0
-16 0
-17 0
-18 0
-19 0
-20 0
1 -21 0
21 -1 0
2 -22 0
22 -2 0
3 -23 0
23 -3 0
4 -24 0
24 -4 0
5 -25 0
25 -5 0
6 -26 0
26 -6 0
7 -27 0
27 -7 0
8 -28 0
28 -8 0
9 -29 0
29 -9 0
10 -30 0
30 -10 0
31 32 0
33 32 0
34 32 0
35 32 0
36 32 0
37 32 0
38 32 0
39 32 0
40 32 0
41 32 0
42 32 0
43 32 0
44 32 0
45 32 0
46 32 0
-47 0
-11 32 -48 0
11 -32 -48 0
48 -32 -11 0
11 32 48 0
-48 0
33 49 0
34 49 0
35 49 0
36 49 0
37 49 0
38 49 0
39 49 0
40 49 0
41 49 0
42 49 0
43 49 0
44 49 0
45 49 0
46 49 0
-50 0
-51 49 -52 0
51 -49 -52 0
52 -49 -51 0
51 49 52 0
-52 0
34 53 0
35 53 0
36 53 0
37 53 0
38 53 0
39 53 0
40 53 0
41 53 0
42 53 0
43 53 0
44 53 0
45 53 0
46 53 0
-54 0
-55 53 -56 0
55 -53 -56 0
56 -53 -55 0
55 53 56 0
-56 0
35 57 0
36 57 0
37 57 0
38 57 0
39 57 0
40 57 0
41 57 0
42 57 0
43 57 0
44 57 0
45 57 0
46 57 0
-58 0
-59 57 -60 0
59 -57 -60 0
60 -57 -59 0
59 57 60 0
-60 0
36 61 0
37 61 0
38 61 0
39 61 0
40 61 0
41 61 0
42 61 0
43 61 0
44 61 0
45 61 0
46 61 0
-62 0
-63 61 -64 0
63 -61 -64 0
64 -61 -63 0
63 61 64 0
-64 0
37 65 0
38 65 0
39 65 0
40 65 0
41 65 0
42 65 0
43 65 0
44 65 0
45 65 0
46 65 0
-66 0
-67 65 -68 0
67 -65 -68 0
68 -65 -67 0
67 65 68 0
-68 0
38 69 0
39 69 0
40 69 0
41 69 0
42 69 0
43 69 0
44 69 0
45 69 0
46 69 0
-70 0
-71 69 -72 0
71 -69 -72 0
72 -69 -71 0
71 69 72 0
-72 0
39 73 0
40 73 0
41 73 0
42 73 0
43 73 0
44 73 0
45 73 0
46 73 0
-74 0
-75 73 -76 0
75 -73 -76 0
76 -73 -75 0
75 73 76 0
-76 0
-77 73 -78 0
77 -73 -78 0
78 -73 -77 0
77 73 78 0
-78 0
-79 73 -80 0
79 -73 -80 0
80 -73 -79 0
79 73 80 0
-80 0
-81 73 -82 0
81 -73 -82 0
82 -73 -81 0
81 73 82 0
-82 0
-83 73 -84 0
83 -73 -84 0
84 -73 -83 0
83 73 84 0
-84 0
-85 73 -86 0
85 -73 -86 0
86 -73 -85 0
85 73 86 0
-86 0
-87 73 -88 0
87 -73 -88 0
88 -73 -87 0
87 73 88 0
-88 0
-89 73 -90 0
89 -73 -90 0
90 -73 -89 0
89 73 90 0
-90 0
91 92 0
93 92 0
94 92 0
95 92 0
96 92 0
97 92 0
98 92 0
99 92 0
100 92 0
101 92 0
102 92 0
103 92 0
104 92 0
-105 0
-12 92 -106 0
12 -92 -106 0
106 -92 -12 0
12 92 106 0
-106 0
93 107 0
94 107 0
95 107 0
96 107 0
97 107 0
98 107 0
99 107 0
100 107 0
101 107 0
102 107 0
103 107 0
104 107 0
-108 0
-109 107 -110 0
109 -107 -110 0
110 -107 -109 0
109 107 110 0
-110 0
94 111 0
95 111 0
96 111 0
97 111 0
98 111 0
99 111 0
100 111 0
101 111 0
102 111 0
103 111 0
104 111 0
-112 0
-113 111 -114 0
113 -111 -114 0
114 -111 -113 0
113 111 114 0
-114 0
95 115 0
96 115 0
97 115 0
98 115 0
99 115 0
100 115 0
101 115 0
102 115 0
103 115 0
104 115 0
-116 0
-117 115 -118 0
117 -115 -118 0
118 -115 -117 0
117 115 118 0
-118 0
96 119 0
97 119 0
98 119 0
99 119 0
100 119 0
101 119 0
102 119 0
103 119 0
104 119 0
-120 0
-121 119 -122 0
121 -119 -122 0
122 -119 -121 0
121 119 122 0
-122 0
97 123 0
98 123 0
99 123 0
100 123 0
101 123 0
102 123 0
103 123 0
104 123 0
-124 0
-125 123 -126 0
125 -123 -126 0
126 -123 -125 0
125 123 126 0
-126 0
-127 123 -128 0
127 -123 -128 0
128 -123 -127 0
127 123 128 0
-128 0
-129 123 -130 0
129 -123 -130 0
130 -123 -129 0
129 123 130 0
-130 0
-131 123 -132 0
131 -123 -132 0
132 -123 -131 0
131 123 132 0
-132 0
-133 123 -134 0
133 -123 -134 0
134 -123 -133 0
133 123 134 0
-134 0
-135 123 -136 0
135 -123 -136 0
136 -123 -135 0
135 123 136 0
-136 0
-137 123 -138 0
137 -123 -138 0
138 -123 -137 0
137 123 138 0
-138 0
-139 123 -140 0
139 -123 -140 0
140 -123 -139 0
139 123 140 0
-140 0
141 142 0
143 142 0
144 142 0
145 142 0
146 142 0
147 142 0
148 142 0
149 142 0
150 142 0
151 142 0
152 142 0
153 142 0
154 142 0
155 142 0
-156 0
-13 142 -157 0
13 -142 -157 0
157 -142 -13 0
13 142 157 0
-157 0
143 158 0
144 158 0
145 158 0
146 158 0
147 158 0
148 158 0
149 158 0
150 158 0
151 158 0
152 158 0
153 158 0
154 158 0
155 158 0
-159 0
-160 158 -161 0
160 -158 -161 0
161 -158 -160 0
160 158 161 0
-161 0
144 162 0
145 162 0
146 162 0
147 162 0
148 162 0
149 162 0
150 162 0
151 162 0
152 162 0
153 162 0
154 162 0
155 162 0
-163 0
-164 162 -165 0
164 -162 -165 0
165 -162 -164 0
164 162 165 0
-165 0
145 166 0
146 166 0
147 166 0
148 166 0
149 166 0
150 166 0
151 166 0
152 166 0
153 166 0
154 166 0
155 166 0
-167 0
-168 166 -169 0
168 -166 -169 0
169 -166 -168 0
168 166 169 0
-169 0
146 170 0
147 170 0
148 170 0
149 170 0
150 170 0
151 170 0
152 170 0
153 170 0
154 170 0
155 170 0
-171 0
-172 170 -173 0
172 -170 -173 0
173 -170 -172 0
172 170 173 0
-173 0
147 174 0
148 174 0
149 174 0
150 174 0
151 174 0
152 174 0
153 174 0
154 174 0
155 174 0
-175 0
-176 174 -177 0
176 -174 -177 0
177 -174 -176 0
176 174 177 0
-177 0
148 178 0
149 178 0
150 178 0
151 178 0
152 178 0
153 178 0
154 178 0
155 178 0
-179 0
-180 178 -181 0
180 -178 -181 0
181 -178 -180 0
180 178 181 0
-181 0
149 182 0
150 182 0
151 182 0
152 182 0
153 182 0
154 182 0
155 182 0
-183 0
-184 182 -185 0
184 -182 -185 0
185 -182 -184 0
184 182 185 0
-185 0
150 186 0
151 186 0
152 186 0
153 186 0
154 186 0
155 186 0
-187 0
-188 186 -189 0
188 -186 -189 0
189 -186 -188 0
188 186 189 0
-189 0
-190 186 -191 0
190 -186 -191 0
191 -186 -190 0
190 186 191 0
-191 0
-192 186 -193 0
192 -186 -193 0
193 -186 -192 0
192 186 193 0
-193 0
-194 186 -195 0
194 -186 -195 0
195 -186 -194 0
194 186 195 0
-195 0
-196 186 -197 0
196 -186 -197 0
197 -186 -196 0
196 186 197 0
-197 0
-198 186 -199 0
198 -186 -199 0
199 -186 -198 0
198 186 199 0
-199 0
200 201 0
202 201 0
203 201 0
204 201 0
205 201 0
206 201 0
207 201 0
208 201 0
209 201 0
210 201 0
211 201 0
212 201 0
-213 0
-14 201 -214 0
14 -201 -214 0
214 -201 -14 0
14 201 214 0
-214 0
202 215 0
203 215 0
204 215 0
205 215 0
206 215 0
207 215 0
208 215 0
209 215 0
210 215 0
211 215 0
212 215 0
-216 0
-217 215 -218 0
217 -215 -218 0
218 -215 -217 0
217 215 218 0
-218 0
203 219 0
204 219 0
205 219 0
206 219 0
207 219 0
208 219 0
209 219 0
210 219 0
211 219 0
212 219 0
-220 0
-221 219 -222 0
221 -219 -222 0
222 -219 -221 0
221 219 222 0
-222 0
204 223 0
205 223 0
206 223 0
207 223 0
208 223 0
209 223 0
210 223 0
211 223 0
212 223 0
-224 0
-225 223 -226 0
225 -223 -226 0
226 -223 -225 0
225 223 226 0
-226 0
205 227 0
206 227 0
207 227 0
208 227 0
209 227 0
210 227 0
211 227 0
212 227 0
-228 0
-229 227 -230 0
229 -227 -230 0
230 -227 -229 0
229 227 230 0
-230 0
206 231 0
207 231 0
208 231 0
209 231 0
210 231 0
211 231 0
212 231 0
-232 0
-233 231 -234 0
233 -231 -234 0
234 -231 -233 0
233 231 234 0
-234 0
-235 231 -236 0
235 -231 -236 0
236 -231 -235 0
235 231 236 0
-236 0
-237 231 -238 0
237 -231 -238 0
238 -231 -237 0
237 231 238 0
-238 0
-239 231 -240 0
239 -231 -240 0
240 -231 -239 0
239 231 240 0
-240 0
-241 231 -242 0
241 -231 -242 0
242 -231 -241 0
241 231 242 0
-242 0
-243 231 -244 0
243 -231 -244 0
244 -231 -243 0
243 231 244 0
-244 0
-245 231 -246 0
245 -231 -246 0
246 -231 -245 0
245 231 246 0
-246 0
247 248 0
249 248 0
250 248 0
251 248 0
252 248 0
253 248 0
254 248 0
255 248 0
256 248 0
257 248 0
258 248 0
259 248 0
260 248 0
261 248 0
-262 0
-15 248 -263 0
15 -248 -263 0
263 -248 -15 0
15 248 263 0
-263 0
249 264 0
250 264 0
251 264 0
252 264 0
253 264 0
254 264 0
255 264 0
256 264 0
257 264 0
258 264 0
259 264 0
260 264 0
261 264 0
-265 0
-266 264 -267 0
266 -264 -267 0
267 -264 -266 0
266 264 267 0
-267 0
250 268 0
251 268 0
252 268 0
253 268 0
254 268 0
255 268 0
256 268 0
257 268 0
258 268 0
259 268 0
260 268 0
261 268 0
-269 0
-270 268 -271 0
270 -268 -271 0
271 -268 -270 0
270 268 271 0
-271 0
251 272 0
252 272 0
253 272 0
254 272 0
255 272 0
256 272 0
257 272 0
258 272 0
259 272 0
260 272 0
261 272 0
-273 0
-274 272 -275 0
274 -272 -275 0
275 -272 -274 0
274 272 275 0
-275 0
252 276 0
253 276 0
254 276 0
255 276 0
256 276 0
257 276 0
258 276 0
259 276 0
260 276 0
261 276 0
-277 0
-278 276 -279 0
278 -276 -279 0
279 -276 -278 0
278 276 279 0
-279 0
253 280 0
254 280 0
255 280 0
256 280 0
257 280 0
258 280 0
259 280 0
260 280 0
261 280 0
-281 0
-282 280 -283 0
282 -280 -283 0
283 -280 -282 0
282 280 283 0
-283 0
254 284 0
255 284 0
256 284 0
257 284 0
258 284 0
259 284 0
260 284 0
261 284 0
-285 0
-286 284 -287 0
286 -284 -287 0
287 -284 -286 0
286 284 287 0
-287 0
-288 284 -289 0
288 -284 -289 0
289 -284 -288 0
288 284 289 0
-289 0
-290 284 -291 0
290 -284 -291 0
291 -284 -290 0
290 284 291 0
-291 0
-292 284 -293 0
292 -284 -293 0
293 -284 -292 0
292 284 293 0
-293 0
-294 284 -295 0
294 -284 -295 0
295 -284 -294 0
294 284 295 0
-295 0
-296 284 -297 0
296 -284 -297 0
297 -284 -296 0
296 284 297 0
-297 0
-298 284 -299 0
298 -284 -299 0
299 -284 -298 0
298 284 299 0
-299 0
-300 284 -301 0
300 -284 -301 0
301 -284 -300 0
300 284 301 0
-301 0
302 303 0
304 303 0
305 303 0
306 303 0
307 303 0
308 303 0
309 303 0
310 303 0
311 303 0
312 303 0
313 303 0
314 303 0
315 303 0
-316 0
-16 303 -317 0
16 -303 -317 0
317 -303 -16 0
16 303 317 0
-317 0
304 318 0
305 318 0
306 318 0
307 318 0
308 318 0
309 318 0
310 318 0
311 318 0
312 318 0
313 318 0
314 318 0
315 318 0
-319 0
-320 318 -321 0
320 -318 -321 0
321 -318 -320 0
320 318 321 0
-321 0
305 322 0
306 322 0
307 322 0
308 322 0
309 322 0
310 322 0
311 322 0
312 322 0
313 322 0
314 322 0
315 322 0
-323 0
-324 322 -325 0
324 -322 -325 0
325 -322 -324 0
324 322 325 0
-325 0
306 326 0
307 326 0
308 326 0
309 326 0
310 326 0
311 326 0
312 326 0
313 326 0
314 326 0
315 326 0
-327 0
-328 326 -329 0
328 -326 -329 0
329 -326 -328 0
328 326 329 0
-329 0
307 330 0
308 330 0
309 330 0
310 330 0
311 330 0
312 330 0
313 330 0
314 330 0
315 330 0
-331 0
-332 330 -333 0
332 -330 -333 0
333 -330 -332 0
332 330 333 0
-333 0
308 334 0
309 334 0
310 334 0
311 334 0
312 334 0
313 334 0
314 334 0
315 334 0
-335 0
-336 334 -337 0
336 -334 -337 0
337 -334 -336 0
336 334 337 0
-337 0
309 338 0
310 338 0
311 338 0
312 338 0
313 338 0
314 338 0
315 338 0
-339 0
-340 338 -341 0
340 -338 -341 0
341 -338 -340 0
340 338 341 0
-341 0
-342 338 -343 0
342 -338 -343 0
343 -338 -342 0
342 338 343 0
-343 0
-344 338 -345 0
344 -338 -345 0
345 -338 -344 0
344 338 345 0
-345 0
-346 338 -347 0
346 -338 -347 0
347 -338 -346 0
346 338 347 0
-347 0
-348 338 -349 0
348 -338 -349 0
349 -338 -348 0
348 338 349 0
-349 0
-350 338 -351 0
350 -338 -351 0
351 -338 -350 0
350 338 351 0
-351 0
-352 338 -353 0
352 -338 -353 0
353 -338 -352 0
352 338 353 0
-353 0
354 355 0
356 355 0
357 355 0
358 355 0
359 355 0
360 355 0
361 355 0
362 355 0
363 355 0
364 355 0
365 355 0
366 355 0
367 355 0
368 355 0
369 355 0
-370 0
-17 355 -371 0
17 -355 -371 0
371 -355 -17 0
17 355 371 0
-371 0
356 372 0
357 372 0
358 372 0
359 372 0
360 372 0
361 372 0
362 372 0
363 372 0
364 372 0
365 372 0
366 372 0
367 372 0
368 372 0
369 372 0
-373 0
-374 372 -375 0
374 -372 -375 0
375 -372 -374 0
374 372 375 0
-375 0
357 376 0
358 376 0
359 376 0
360 376 0
361 376 0
362 376 0
363 376 0
364 376 0
365 376 0
366 376 0
367 376 0
368 376 0
369 376 0
-377 0
-378 376 -379 0
378 -376 -379 0
379 -376 -378 0
378 376 379 0
-379 0
358 380 0
359 380 0
360 380 0
361 380 0
362 380 0
363 380 0
364 380 0
365 380 0
366 380 0
367 380 0
368 380 0
369 380 0
-381 0
-382 380 -383 0
382 -380 -383 0
383 -380 -382 0
382 380 383 0
-383 0
359 384 0
360 384 0
361 384 0
362 384 0
363 384 0
364 384 0
365 384 0
366 384 0
367 384 0
368 384 0
369 384 0
-385 0
-386 384 -387 0
386 -384 -387 0
387 -384 -386 0
386 384 387 0
-387 0
360 388 0
361 388 0
362 388 0
363 388 0
364 388 0
365 388 0
366 388 0
367 388 0
368 388 0
369 388 0
-389 0
-390 388 -391 0
390 -388 -391 0
391 -388 -390 0
390 388 391 0
-391 0
361 392 0
362 392 0
363 392 0
364 392 0
365 392 0
366 392 0
367 392 0
368 392 0
369 392 0
-393 0
-394 392 -395 0
394 -392 -395 0
395 -392 -394 0
394 392 395 0
-395 0
362 396 0
363 396 0
364 396 0
365 396 0
366 396 0
367 396 0
368 396 0
369 396 0
-397 0
-398 396 -399 0
398 -396 -399 0
399 -396 -398 0
398 396 399 0
-399 0
-400 396 -401 0
400 -396 -401 0
401 -396 -400 0
400 396 401 0
-401 0
-402 396 -403 0
402 -396 -403 0
403 -396 -402 0
402 396 403 0
-403 0
-404 396 -405 0
404 -396 -405 0
405 -396 -404 0
404 396 405 0
-405 0
-406 396 -407 0
406 -396 -407 0
407 -396 -406 0
406 396 407 0
-407 0
-408 396 -409 0
408 -396 -409 0
409 -396 -408 0
408 396 409 0
-409 0
-410 396 -411 0
410 -396 -411 0
411 -396 -410 0
410 396 411 0
-411 0
-412 396 -413 0
412 -396 -413 0
413 -396 -412 0
412 396 413 0
-413 0
414 415 0
416 415 0
417 415 0
418 415 0
419 415 0
420 415 0
421 415 0
422 415 0
423 415 0
424 415 0
-425 0
-18 415 -426 0
18 -415 -426 0
426 -415 -18 0
18 415 426 0
-426 0
416 427 0
417 427 0
418 427 0
419 427 0
420 427 0
421 427 0
422 427 0
423 427 0
424 427 0
-428 0
-429 427 -430 0
429 -427 -430 0
430 -427 -429 0
429 427 430 0
-430 0
417 431 0
418 431 0
419 431 0
420 431 0
421 431 0
422 431 0
423 431 0
424 431 0
-432 0
-433 431 -434 0
433 -431 -434 0
434 -431 -433 0
433 431 434 0
-434 0
418 435 0
419 435 0
420 435 0
421 435 0
422 435 0
423 435 0
424 435 0
-436 0
-437 435 -438 0
437 -435 -438 0
438 -435 -437 0
437 435 438 0
-438 0
419 439 0
420 439 0
421 439 0
422 439 0
423 439 0
424 439 0
-440 0
-441 439 -442 0
441 -439 -442 0
442 -439 -441 0
441 439 442 0
-442 0
-443 439 -444 0
443 -439 -444 0
444 -439 -443 0
443 439 444 0
-444 0
-445 439 -446 0
445 -439 -446 0
446 -439 -445 0
445 439 446 0
-446 0
-447 439 -448 0
447 -439 -448 0
448 -439 -447 0
447 439 448 0
-448 0
-449 439 -450 0
449 -439 -450 0
450 -439 -449 0
449 439 450 0
-450 0
-451 439 -452 0
451 -439 -452 0
452 -439 -451 0
451 439 452 0
-452 0
453 454 0
455 454 0
456 454 0
457 454 0
458 454 0
459 454 0
460 454 0
461 454 0
462 454 0
463 454 0
464 454 0
465 454 0
466 454 0
-467 0
-19 454 -468 0
19 -454 -468 0
468 -454 -19 0
19 454 468 0
-468 0
455 469 0
456 469 0
457 469 0
458 469 0
459 469 0
460 469 0
461 469 0
462 469 0
463 469 0
464 469 0
465 469 0
466 469 0
-470 0
-471 469 -472 0
471 -469 -472 0
472 -469 -471 0
471 469 472 0
-472 0
456 473 0
457 473 0
458 473 0
459 473 0
460 473 0
461 473 0
462 473 0
463 473 0
464 473 0
465 473 0
466 473 0
-474 0
-475 473 -476 0
475 -473 -476 0
476 -473 -475 0
475 473 476 0
-476 0
457 477 0
458 477 0
459 477 0
460 477 0
461 477 0
462 477 0
463 477 0
464 477 0
465 477 0
466 477 0
-478 0
-479 477 -480 0
479 -477 -480 0
480 -477 -479 0
479 477 480 0
-480 0
458 481 0
459 481 0
460 481 0
461 481 0
462 481 0
463 481 0
464 481 0
465 481 0
466 481 0
-482 0
-483 481 -484 0
483 -481 -484 0
484 -481 -483 0
483 481 484 0
-484 0
459 485 0
460 485 0
461 485 0
462 485 0
463 485 0
464 485 0
465 485 0
466 485 0
-486 0
-487 485 -488 0
487 -485 -488 0
488 -485 -487 0
487 485 488 0
-488 0
-489 485 -490 0
489 -485 -490 0
490 -485 -489 0
489 485 490 0
-490 0
-491 485 -492 0
491 -485 -492 0
492 -485 -491 0
491 485 492 0
-492 0
-493 485 -494 0
493 -485 -494 0
494 -485 -493 0
493 485 494 0
-494 0
-495 485 -496 0
495 -485 -496 0
496 -485 -495 0
495 485 496 0
-496 0
-497 485 -498 0
497 -485 -498 0
498 -485 -497 0
497 485 498 0
-498 0
-499 485 -500 0
499 -485 -500 0
500 -485 -499 0
499 485 500 0
-500 0
-501 485 -502 0
501 -485 -502 0
502 -485 -501 0
501 485 502 0
-502 0
503 504 0
505 504 0
506 504 0
507 504 0
508 504 0
509 504 0
510 504 0
511 504 0
512 504 0
513 504 0
514 504 0
515 504 0
516 504 0
-517 0
-20 504 -518 0
20 -504 -518 0
518 -504 -20 0
20 504 518 0
-518 0
505 519 0
506 519 0
507 519 0
508 519 0
509 519 0
510 519 0
511 519 0
512 519 0
513 519 0
514 519 0
515 519 0
516 519 0
-520 0
-521 519 -522 0
521 -519 -522 0
522 -519 -521 0
521 519 522 0
-522 0
506 523 0
507 523 0
508 523 0
509 523 0
510 523 0
511 523 0
512 523 0
513 523 0
514 523 0
515 523 0
516 523 0
-524 0
-525 523 -526 0
525 -523 -526 0
526 -523 -525 0
525 523 526 0
-526 0
507 527 0
508 527 0
509 527 0
510 527 0
511 527 0
512 527 0
513 527 0
514 527 0
515 527 0
516 527 0
-528 0
-529 527 -530 0
529 -527 -530 0
530 -527 -529 0
529 527 530 0
-530 0
508 531 0
509 531 0
510 531 0
511 531 0
512 531 0
513 531 0
514 531 0
515 531 0
516 531 0
-532 0
-533 531 -534 0
533 -531 -534 0
534 -531 -533 0
533 531 534 0
-534 0
509 535 0
510 535 0
511 535 0
512 535 0
513 535 0
514 535 0
515 535 0
516 535 0
-536 0
-537 535 -538 0
537 -535 -538 0
538 -535 -537 0
537 535 538 0
-538 0
510 539 0
511 539 0
512 539 0
513 539 0
514 539 0
515 539 0
516 539 0
-540 0
-541 539 -542 0
541 -539 -542 0
542 -539 -541 0
541 539 542 0
-542 0
-543 539 -544 0
543 -539 -544 0
544 -539 -543 0
543 539 544 0
-544 0
-545 539 -546 0
545 -539 -546 0
546 -539 -545 0
545 539 546 0
-546 0
-547 539 -548 0
547 -539 -548 0
548 -539 -547 0
547 539 548 0
-548 0
-549 539 -550 0
549 -539 -550 0
550 -539 -549 0
549 539 550 0
-550 0
-551 539 -552 0
551 -539 -552 0
552 -539 -551 0
551 539 552 0
-552 0
-553 539 -554 0
553 -539 -554 0
554 -539 -553 0
553 539 554 0
-554 0
-21 555 -556 0
21 -555 -556 0
-21 -555 556 0
21 555 556 0
-556 0
-22 557 -558 0
22 -557 -558 0
-22 -557 558 0
22 557 558 0
-558 0
-23 559 -560 0
23 -559 -560 0
-23 -559 560 0
23 559 560 0
-560 0
-24 561 -562 0
24 -561 -562 0
-24 -561 562 0
24 561 562 0
-562 0
-25 563 -564 0
25 -563 -564 0
-25 -563 564 0
25 563 564 0
-564 0
-26 565 -566 0
26 -565 -566 0
-26 -565 566 0
26 565 566 0
-566 0
-27 567 -568 0
27 -567 -568 0
-27 -567 568 0
27 567 568 0
-568 0
-28 569 -570 0
28 -569 -570 0
-28 -569 570 0
28 569 570 0
-570 0
-29 571 -572 0
29 -571 -572 0
-29 -571 572 0
29 571 572 0
-572 0
-30 573 -574 0
30 -573 -574 0
-30 -573 574 0
30 573 574 0
-574 0
-31 575 -576 0
31 -575 -576 0
-31 -575 576 0
31 575 576 0
-576 0
-33 577 -578 0
33 -577 -578 0
-33 -577 578 0
33 577 578 0
-578 0
-34 579 -580 0
34 -579 -580 0
-34 -579 580 0
34 579 580 0
-580 0
-35 581 -582 0
35 -581 -582 0
-35 -581 582 0
35 581 582 0
-582 0
-36 583 -584 0
36 -583 -584 0
-36 -583 584 0
36 583 584 0
-584 0
-37 585 -586 0
37 -585 -586 0
-37 -585 586 0
37 585 586 0
-586 0
-38 587 -588 0
38 -587 -588 0
-38 -587 588 0
38 587 588 0
-588 0
-39 589 -590 0
39 -589 -590 0
-39 -589 590 0
39 589 590 0
-590 0
-40 591 -592 0
40 -591 -592 0
-40 -591 592 0
40 591 592 0
-592 0
-41 593 -594 0
41 -593 -594 0
-41 -593 594 0
41 593 594 0
-594 0
-42 595 -596 0
42 -595 -596 0
-42 -595 596 0
42 595 596 0
-596 0
-43 597 -598 0
43 -597 -598 0
-43 -597 598 0
43 597 598 0
-598 0
-44 599 -600 0
44 -599 -600 0
-44 -599 600 0
44 599 600 0
-600 0
-45 601 -602 0
45 -601 -602 0
-45 -601 602 0
45 601 602 0
-602 0
-46 603 -604 0
46 -603 -604 0
-46 -603 604 0
46 603 604 0
-604 0
-91 605 -606 0
91 -605 -606 0
-91 -605 606 0
91 605 606 0
-606 0
-93 607 -608 0
93 -607 -608 0
-93 -607 608 0
93 607 608 0
-608 0
-94 609 -610 0
94 -609 -610 0
-94 -609 610 0
94 609 610 0
-610 0
-95 611 -612 0
95 -611 -612 0
-95 -611 612 0
95 611 612 0
-612 0
-96 613 -614 0
96 -613 -614 0
-96 -613 614 0
96 613 614 0
-614 0
-97 615 -616 0
97 -615 -616 0
-97 -615 616 0
97 615 616 0
-616 0
-98 617 -618 0
98 -617 -618 0
-98 -617 618 0
98 617 618 0
-618 0
-99 619 -620 0
99 -619 -620 0
-99 -619 620 0
99 619 620 0
-620 0
-100 621 -622 0
100 -621 -622 0
-100 -621 622 0
100 621 622 0
-622 0
-101 623 -624 0
101 -623 -624 0
-101 -623 624 0
101 623 624 0
-624 0
-102 625 -626 0
102 -625 -626 0
-102 -625 626 0
102 625 626 0
-626 0
-103 627 -628 0
103 -627 -628 0
-103 -627 628 0
103 627 628 0
-628 0
-104 629 -630 0
104 -629 -630 0
-104 -629 630 0
104 629 630 0
-630 0
-141 631 -632 0
141 -631 -632 0
-141 -631 632 0
141 631 632 0
-632 0
-143 633 -634 0
143 -633 -634 0
-143 -633 634 0
143 633 634 0
-634 0
-144 635 -636 0
144 -635 -636 0
-144 -635 636 0
144 635 636 0
-636 0
-145 637 -638 0
145 -637 -638 0
-145 -637 638 0
145 637 638 0
-638 0
-146 639 -640 0
146 -639 -640 0
-146 -639 640 0
146 639 640 0
-640 0
-147 641 -642 0
147 -641 -642 0
-147 -641 642 0
147 641 642 0
-642 0
-148 643 -644 0
148 -643 -644 0
-148 -643 644 0
148 643 644 0
-644 0
-149 645 -646 0
149 -645 -646 0
-149 -645 646 0
149 645 646 0
-646 0
-150 647 -648 0
150 -647 -648 0
-150 -647 648 0
150 647 648 0
-648 0
-151 649 -650 0
151 -649 -650 0
-151 -649 650 0
151 649 650 0
-650 0
-152 651 -652 0
152 -651 -652 0
-152 -651 652 0
152 651 652 0
-652 0
-153 653 -654 0
153 -653 -654 0
-153 -653 654 0
153 653 654 0
-654 0
-154 655 -656 0
154 -655 -656 0
-154 -655 656 0
154 655 656 0
-656 0
-155 657 -658 0
155 -657 -658 0
-155 -657 658 0
155 657 658 0
-658 0
-200 659 -660 0
200 -659 -660 0
-200 -659 660 0
200 659 660 0
-660 0
-202 661 -662 0
202 -661 -662 0
-202 -661 662 0
202 661 662 0
-662 0
-203 663 -664 0
203 -663 -664 0
-203 -663 664 0
203 663 664 0
-664 0
-204 665 -666 0
204 -665 -666 0
-204 -665 666 0
204 665 666 0
-666 0
-205 667 -668 0
205 -667 -668 0
-205 -667 668 0
205 667 668 0
-668 0
-206 669 -670 0
206 -669 -670 0
-206 -669 670 0
206 669 670 0
-670 0
-207 671 -672 0
207 -671 -672 0
-207 -671 672 0
207 671 672 0
-672 0
-208 673 -674 0
208 -673 -674 0
-208 -673 674 0
208 673 674 0
-674 0
-209 675 -676 0
209 -675 -676 0
-209 -675 676 0
209 675 676 0
-676 0
-210 677 -678 0
210 -677 -678 0
-210 -677 678 0
210 677 678 0
-678 0
-211 679 -680 0
211 -679 -680 0
-211 -679 680 0
211 679 680 0
-680 0
-212 681 -682 0
212 -681 -682 0
-212 -681 682 0
212 681 682 0
-682 0
-247 683 -684 0
247 -683 -684 0
-247 -683 684 0
247 683 684 0
-684 0
-249 685 -686 0
249 -685 -686 0
-249 -685 686 0
249 685 686 0
-686 0
-250 687 -688 0
250 -687 -688 0
-250 -687 688 0
250 687 688 0
-688 0
-251 689 -690 0
251 -689 -690 0
-251 -689 690 0
251 689 690 0
-690 0
-252 691 -692 0
252 -691 -692 0
-252 -691 692 0
252 691 692 0
-692 0
-253 693 -694 0
253 -693 -694 0
-253 -693 694 0
253 693 694 0
-694 0
-254 695 -696 0
254 -695 -696 0
-254 -695 696 0
254 695 696 0
-696 0
-255 697 -698 0
255 -697 -698 0
-255 -697 698 0
255 697 698 0
-698 0
-256 699 -700 0
256 -699 -700 0
-256 -699 700 0
256 699 700 0
-700 0
-257 701 -702 0
257 -701 -702 0
-257 -701 702 0
257 701 702 0
-702 0
-258 703 -704 0
258 -703 -704 0
-258 -703 704 0
258 703 704 0
-704 0
-259 705 -706 0
259 -705 -706 0
-259 -705 706 0
259 705 706 0
-706 0
-260 707 -708 0
260 -707 -708 0
-260 -707 708 0
260 707 708 0
-708 0
-261 709 -710 0
261 -709 -710 0
-261 -709 710 0
261 709 710 0
-710 0
-302 711 -712 0
302 -711 -712 0
-302 -711 712 0
302 711 712 0
-712 0
-304 713 -714 0
304 -713 -714 0
-304 -713 714 0
304 713 714 0
-714 0
-305 715 -716 0
305 -715 -716 0
-305 -715 716 0
305 715 716 0
-716 0
-306 717 -718 0
306 -717 -718 0
-306 -717 718 0
306 717 718 0
-718 0
-307 719 -720 0
307 -719 -720 0
-307 -719 720 0
307 719 720 0
-720 0
-308 721 -722 0
308 -721 -722 0
-308 -721 722 0
308 721 722 0
-722 0
-309 723 -724 0
309 -723 -724 0
-309 -723 724 0
309 723 724 0
-724 0
-310 725 -726 0
310 -725 -726 0
-310 -725 726 0
310 725 726 0
-726 0
-311 727 -728 0
311 -727 -728 0
-311 -727 728 0
311 727 728 0
-728 0
-312 729 -730 0
312 -729 -730 0
-312 -729 730 0
312 729 730 0
-730 0
-313 731 -732 0
313 -731 -732 0
-313 -731 732 0
313 731 732 0
-732 0
-314 733 -734 0
314 -733 -734 0
-314 -733 734 0
314 733 734 0
-734 0
-315 735 -736 0
315 -735 -736 0
-315 -735 736 0
315 735 736 0
-736 0
-354 737 -738 0
354 -737 -738 0
-354 -737 738 0
354 737 738 0
-738 0
-356 739 -740 0
356 -739 -740 0
-356 -739 740 0
356 739 740 0
-740 0
-357 741 -742 0
357 -741 -742 0
-357 -741 742 0
357 741 742 0
-742 0
-358 743 -744 0
358 -743 -744 0
-358 -743 744 0
358 743 744 0
-744 0
-359 745 -746 0
359 -745 -746 0
-359 -745 746 0
359 745 746 0
-746 0
-360 747 -748 0
360 -747 -748 0
-360 -747 748 0
360 747 748 0
-748 0
-361 749 -750 0
361 -749 -750 0
-361 -749 750 0
361 749 750 0
-750 0
-362 751 -752 0
362 -751 -752 0
-362 -751 752 0
362 751 752 0
-752 0
-363 753 -754 0
363 -753 -754 0
-363 -753 754 0
363 753 754 0
-754 0
-364 755 -756 0
364 -755 -756 0
-364 -755 756 0
364 755 756 0
-756 0
-365 757 -758 0
365 -757 -758 0
-365 -757 758 0
365 757 758 0
-758 0
-366 759 -760 0
366 -759 -760 0
-366 -759 760 0
366 759 760 0
-760 0
-367 761 -762 0
367 -761 -762 0
-367 -761 762 0
367 761 762 0
-762 0
-368 763 -764 0
368 -763 -764 0
-368 -763 764 0
368 763 764 0
-764 0
-369 765 -766 0
369 -765 -766 0
-369 -765 766 0
369 765 766 0
-766 0
-414 767 -768 0
414 -767 -768 0
-414 -767 768 0
414 767 768 0
-768 0
-416 769 -770 0
416 -769 -770 0
-416 -769 770 0
416 769 770 0
-770 0
-417 771 -772 0
417 -771 -772 0
-417 -771 772 0
417 771 772 0
-772 0
-418 773 -774 0
418 -773 -774 0
-418 -773 774 0
418 773 774 0
-774 0
-419 775 -776 0
419 -775 -776 0
-419 -775 776 0
419 775 776 0
-776 0
-420 777 -778 0
420 -777 -778 0
-420 -777 778 0
420 777 778 0
-778 0
-421 779 -780 0
421 -779 -780 0
-421 -779 780 0
421 779 780 0
-780 0
-422 781 -782 0
422 -781 -782 0
-422 -781 782 0
422 781 782 0
-782 0
-423 783 -784 0
423 -783 -784 0
-423 -783 784 0
423 783 784 0
-784 0
-424 785 -786 0
424 -785 -786 0
-424 -785 786 0
424 785 786 0
-786 0
-453 787 -788 0
453 -787 -788 0
-453 -787 788 0
453 787 788 0
-788 0
-455 789 -790 0
455 -789 -790 0
-455 -789 790 0
455 789 790 0
-790 0
-456 791 -792 0
456 -791 -792 0
-456 -791 792 0
456 791 792 0
-792 0
-457 793 -794 0
457 -793 -794 0
-457 -793 794 0
457 793 794 0
-794 0
-458 795 -796 0
458 -795 -796 0
-458 -795 796 0
458 795 796 0
-796 0
-459 797 -798 0
459 -797 -798 0
-459 -797 798 0
459 797 798 0
-798 0
-460 799 -800 0
460 -799 -800 0
-460 -799 800 0
460 799 800 0
-800 0
-461 801 -802 0
461 -801 -802 0
-461 -801 802 0
461 801 802 0
-802 0
-462 803 -804 0
462 -803 -804 0
-462 -803 804 0
462 803 804 0
-804 0
-463 805 -806 0
463 -805 -806 0
-463 -805 806 0
463 805 806 0
-806 0
-464 807 -808 0
464 -807 -808 0
-464 -807 808 0
464 807 808 0
-808 0
-465 809 -810 0
465 -809 -810 0
-465 -809 810 0
465 809 810 0
-810 0
-466 811 -812 0
466 -811 -812 0
-466 -811 812 0
466 811 812 0
-812 0
-503 813 -814 0
503 -813 -814 0
-503 -813 814 0
503 813 814 0
-814 0
-505 815 -816 0
505 -815 -816 0
-505 -815 816 0
505 815 816 0
-816 0
-506 817 -818 0
506 -817 -818 0
-506 -817 818 0
506 817 818 0
-818 0
-507 819 -820 0
507 -819 -820 0
-507 -819 820 0
507 819 820 0
-820 0
-508 821 -822 0
508 -821 -822 0
-508 -821 822 0
508 821 822 0
-822 0
-509 823 -824 0
509 -823 -824 0
-509 -823 824 0
509 823 824 0
-824 0
-510 825 -826 0
510 -825 -826 0
-510 -825 826 0
510 825 826 0
-826 0
-511 827 -828 0
511 -827 -828 0
-511 -827 828 0
511 827 828 0
-828 0
-512 829 -830 0
512 -829 -830 0
-512 -829 830 0
512 829 830 0
-830 0
-513 831 -832 0
513 -831 -832 0
-513 -831 832 0
513 831 832 0
-832 0
-514 833 -834 0
514 -833 -834 0
-514 -833 834 0
514 833 834 0
-834 0
-515 835 -836 0
515 -835 -836 0
-515 -835 836 0
515 835 836 0
-836 0
-516 837 -838 0
516 -837 -838 0
-516 -837 838 0
516 837 838 0
-838 0
-839 -555 0
-839 -557 0
-839 -559 0
-839 -561 0
-839 -563 0
-839 -565 0
-839 -567 0
-839 -569 0
-839 -571 0
-839 -573 0
575 -839 0
577 -839 0
-839 -579 0
-839 -581 0
-839 -583 0
585 -839 0
-839 -587 0
-839 -589 0
591 -839 0
-839 -593 0
-839 -595 0
597 -839 0
599 -839 0
-839 -601 0
603 -839 0
-839 -605 0
-839 -607 0
-839 -609 0
611 -839 0
613 -839 0
615 -839 0
617 -839 0
619 -839 0
621 -839 0
-839 -623 0
-839 -625 0
627 -839 0
-839 -629 0
-839 -631 0
633 -839 0
-839 -635 0
-839 -637 0
639 -839 0
641 -839 0
-839 -643 0
645 -839 0
647 -839 0
649 -839 0
-839 -651 0
-839 -653 0
-839 -655 0
-839 -657 0
-839 -659 0
-839 -661 0
-839 -663 0
665 -839 0
667 -839 0
-839 -669 0
671 -839 0
673 -839 0
-839 -675 0
-839 -677 0
679 -839 0
-839 -681 0
-839 -683 0
-839 -685 0
-839 -687 0
-839 -689 0
691 -839 0
693 -839 0
-839 -695 0
697 -839 0
-839 -699 0
701 -839 0
703 -839 0
705 -839 0
-839 -707 0
-839 -709 0
711 -839 0
713 -839 0
715 -839 0
-839 -717 0
-839 -719 0
721 -839 0
723 -839 0
-839 -725 0
727 -839 0
-839 -729 0
-839 -731 0
733 -839 0
-839 -735 0
737 -839 0
739 -839 0
741 -839 0
743 -839 0
745 -839 0
747 -839 0
-839 -749 0
-839 -751 0
753 -839 0
755 -839 0
757 -839 0
759 -839 0
-839 -761 0
-839 -763 0
765 -839 0
-839 -767 0
769 -839 0
771 -839 0
773 -839 0
775 -839 0
-839 -777 0
-839 -779 0
-839 -781 0
-839 -783 0
-839 -785 0
787 -839 0
-839 -789 0
-839 -791 0
793 -839 0
-839 -795 0
797 -839 0
799 -839 0
801 -839 0
-839 -803 0
805 -839 0
807 -839 0
809 -839 0
811 -839 0
813 -839 0
-839 -815 0
-839 -817 0
819 -839 0
-839 -821 0
-839 -823 0
-839 -825 0
827 -839 0
-839 -829 0
-839 -831 0
-839 -833 0
835 -839 0
837 -839 0
839 0
-840 0
-841 0
-842 0
-843 0
-844 0
-845 0
-846 0
-847 0
